21 63
6 18
7 17
12 16
3 7
12 13
5 7
0 2
3 19
8 9
2 5
2 11
10 12
2 8
1 12
7 16
6 14
7 19
18 19
15 20
5 6
4 8
3 6
14 15
5 12
5 18
0 1
11 16
0 16
1 11
10 14
19 20
10 17
11 19
2 10
13 18
2 19
10 20
6 7
7 9
15 16
6 13
6 10
15 19
16 18
7 15
4 7
3 8
4 13
5 8
5 14
17 19
8 13
2 3
1 7
2 9
8 19
1 13
2 18
7 8
1 10
0 15
16 17
7 14
